(set-option :produce-models true)
(set-logic QF_UF)
(declare-fun p0() Bool)
(declare-fun p8() Bool)
(declare-fun p2() Bool)
(declare-fun p4() Bool)
(declare-fun p10() Bool)
(declare-fun p1() Bool)
(declare-fun p13() Bool)
(declare-fun p9() Bool)
(declare-fun p7() Bool)
(declare-fun p14() Bool)
(declare-fun p3() Bool)
(declare-fun p12() Bool)
(declare-fun p11() Bool)
(declare-fun p6() Bool)
(declare-fun p5() Bool)
(assert
(and (or p0 p8 p2) (or p4 (not p10) (not p1)) (or p4 p1 p13) (or (not p8) p1 (not p10)) (or p9 (not p7) (not p1)) (or (not p0) p10 (not p14)) (or p13 p3 p14) (or p9 (not p10) p12) (or (not p11) p11 (not p14)) (or (not p11) (not p1) p8) (or p6 (not p5) p11) (or (not p9) (not p12) p8) (or (not p0) p4 p11) (or p12 p3 (not p2)) (or (not p14) p3 p12) (or p6 p5 p10) (or p9 p13 (not p13)) (or p2 p5 p5) (or (not p5) p1 (not p7)) (or p8 p5 (not p12)) (or (not p6) (not p11) p7) (or p6 (not p10) p3) (or p13 (not p0) p13) (or p11 p8 (not p3)) (or p12 p3 p1) (or p4 p1 p10) (or p2 p3 p2) (or p11 p10 (not p0)) (or p14 p13 (not p8)) (or (not p1) p1 (not p2)) (or p0 p13 (not p12)) (or (not p2) (not p10) p5) (or p13 (not p12) (not p4)) (or (not p14) p9 (not p13)) (or (not p10) p9 p9) (or (not p13) p3 p2) (or (not p7) (not p4) p8) (or (not p8) p10 p13) (or p14 (not p0) (not p0)) (or (not p6) (not p6) (not p11)) (or (not p5) p0 p14) (or p10 p3 (not p3)) (or p11 (not p11) (not p13)) (or (not p8) p2 (not p12)) (or p2 (not p3) p9) (or (not p12) (not p10) (not p5)) (or p10 p10 (not p0)) (or p7 p10 p0) (or p4 (not p14) (not p4)) (or p0 (not p5) (not p7)) (or p3 (not p12) (not p11)) (or (not p11) (not p2) p3) (or p8 p9 p12) (or (not p13) (not p3) p14) (or (not p5) (not p1) p6) (or (not p11) p8 (not p12)) (or (not p8) (not p11) p3) (or p5 p11 (not p13)) (or (not p7) p6 p8) (or p14 p11 (not p12)) (or p4 (not p10) p9) (or (not p14) p14 p4) (or (not p5) (not p7) (not p6)) (or (not p0) p1 p1) (or p14 p8 p5) (or (not p13) (not p14) p14) (or p3 p3 (not p9)) (or p6 p10 p1) (or (not p6) (not p7) p5))
)
(check-sat)
(get-model)
